letting initialStacks = [40, 18, 37, 25, 35, 49, 7, 3, 50, 19, 14, 34, 41, 36, 11, 33, 27, 48, 28, 21, 20, 39, 4, 22, 16, 13, 51, 9, 38, 43, 30, 17, 26, 42, 15, 5, 2, 8, 32, 12, 10, 29, 24, 45, 44, 31, 46, 6, 23, 47, 1]
